(set-logic QF_S)
(declare-fun _var_0xINPUT_122700_() String)
(declare-fun __woorpje_diseq_pref0_() String)
(declare-fun __woorpje_diseq_suf_l0_() String)
(declare-fun __woorpje_diseq_suf_r0_() String)
(assert (=(str.++  "eBD0VcucAX" "")(str.++ __woorpje_diseq_pref0_  "u" __woorpje_diseq_suf_l0_  "")) )
(assert (=(str.++ _var_0xINPUT_122700_  "")(str.++ __woorpje_diseq_pref0_  "X" __woorpje_diseq_suf_r0_  "")) )
(check-sat)
